webassembly/ejemplos_dzn/9/folder9_json_59.dzn
TERM = { '.', 's(2)', 'local_0', 's(1)', 's(0)', 's(3)', 'in_0'};
null = '.';
s = 9;
n = 8;
ndeps = 0;
max_registers_sz = 4;
NR = 1;
registers = [|'local_0', 's(3)'|];
dependencies = [| |];
GET_ENUM = { GET1, GET2, GET3, GET4, GET5};
SET_ENUM = { SET1, SET2, SET3, SET4, SET5};
TEE_ENUM = { TEE1, TEE2, TEE3, TEE4, TEE5};
N = 6;
OP = { 'i32.const_0', 'i32.store8_1', 'i32.const_1', 'i32.load8_s_5', 'i32.store8_7', 'i32.const_2' };
in_ops = [0, 2, 0, 1, 2, 0 ];
out_ops = [1, 0, 1, 1, 0, 1 ];
in1 = ['.', 's(1)', '.', 's(2)', 's(2)', '.' ];
in2 = ['.', 'in_0', '.', '.', 's(0)', '.' ];
in3 = ['.', '.', '.', '.', '.', '.' ];
out1 = ['s(1)', '.', 's(2)', 's(0)', '.', 's(3)' ];
out2 = ['.', '.', '.', '.', '.', '.' ];
out3 = ['.', '.', '.', '.', '.', '.' ];
comm = [false, false, false, false, false, false ];
gas = [1, 1, 1, 1, 1, 1 ];
sz = [1, 1, 1, 1, 1, 1 ];
stor = [false, true, false, false, true, false ];
lb = [ 1, 1, 1, 1, 1, 1 ];
ub = [ 9, 9, 9, 9, 9, 9 ];
startstack = [ 'in_0', null, null, null, null, null, null, null ];
endstack = [ null, null, null, null, null, null, null, null ];
